WARNING: for repeatability, setting FPU to use double precision
============================[ Problem Statistics ]=============================
|                                                                             |
|  Number of variables:           100                                         |
|  Number of clauses:             449                                         |
|  Parse time:                   0.00 s                                       |
|  Eliminated clauses:           0.00 Mb                                      |
|  Simplification time:          0.00 s                                       |
|                                                                             |
============================[ Search Statistics ]==============================
| Conflicts |          ORIGINAL         |          LEARNT          | Progress |
|           |    Vars  Clauses Literals |    Limit  Clauses Lit/Cl |          |
===============================================================================
|       100 |      98      447     1357 |      163      100      5 |  0.070 % |
===============================================================================
restarts              : 3
conflicts             : 200            (65020 /sec)
decisions             : 252            (0.00 % random) (81925 /sec)
propagations          : 5021           (1632315 /sec)
conflict literals     : 1189           (22.99 % deleted)
Memory used           : 13.00 MB
CPU time              : 0.003076 s

SATISFIABLE
